11 31 
51 
24 31 
54 62 5 74 
19 13 
61 25 51 3 27 
9 72 
25 53 
39 14 26 
74 6 54 43 40 24 
38 42 
0 19 
65 43 
71 63 48 36 4 
34 45 8 
38 
51 
57 75 55 63 
63 24 25 27 
4 11 

74 32 
73 
57 
18 2 9 
5 53 75 7 18 
8 
41 30 56 18 5 33 
49 

27 
2 0 
44 68 77 21 
53 50 27 
14 

13 
76 
51 15 10 65 63 66 
8 41 
65 9 
72 27 60 39 
10 
12 9 49 
32 
59 14 

58 78 
50 13 
43 28 
48 33 
16 38 5 1 

25 33 7 
3 9 
17 69 67 
27 
17 23 
47 
45 60 
41 59 
5 
3 72 
67 17 18 38 13 

12 40 38 
76 38 79 
63 55 
32 
55 

13 79 
41 6 62 
22 
9 21 3 
17 25 
37 66 
32 
47 
71 66 
